20	5
0	6	6	5	3	2	1	4
1	2	19	13
2	1	18
3	1	15
4	4	9	16	19	18
5	1	11
6	1	13
7	1	16
8	1	17
9	1	12
10	1	14
11	2	7	9
12	3	15	20	8
13	1	21
14	1	21
15	1	21
16	1	21
17	1	21
18	1	21
19	1	21
20	1	21
21	0
0	0	0	0	0	0	0
1	3	5	5	2	1	1
2	5	2	3	4	5	4
3	4	4	3	5	2	1
4	9	5	2	5	3	5
5	2	2	2	1	2	3
6	4	1	3	4	1	1
7	10	4	5	2	4	5
8	1	5	2	2	1	1
9	5	3	5	5	1	5
10	5	3	5	3	1	3
11	4	3	5	5	1	2
12	1	3	3	1	1	5
13	10	1	2	2	4	4
14	1	5	4	4	3	4
15	6	3	2	5	2	3
16	4	3	3	1	2	4
17	4	5	4	4	5	4
18	5	3	1	3	4	2
19	4	1	4	5	2	2
20	4	3	2	3	2	1
21	0	0	0	0	0	0
11	13	12	11	12
